(set-option :produce-models true); benchmark generated from python API
(set-info :status unknown)
(declare-fun l_0_0_26 () Real)
(declare-fun l_0_0_25 () Real)
(declare-fun l_0_0_19 () Real)
(declare-fun l_0_0_13 () Real)
(declare-fun _a_0_ () Real)
(declare-fun _a_1_ () Real)
(declare-fun l_0_0_8 () Real)
(declare-fun l_0_0_7 () Real)
(declare-fun l_0_0_29 () Real)
(declare-fun l_0_0_27 () Real)
(declare-fun l_0_0_28 () Real)
(declare-fun l_0_0_22 () Real)
(declare-fun l_0_0_16 () Real)
(declare-fun l_0_0_2 () Real)
(declare-fun l_0_0_1 () Real)
(declare-fun _a_2_ () Real)
(declare-fun _a_3_ () Real)
(declare-fun l_0_0_20 () Real)
(declare-fun l_0_0_14 () Real)
(declare-fun _a_4_ () Real)
(declare-fun l_0_0_30 () Real)
(declare-fun l_0_0_10 () Real)
(declare-fun l_0_0_4 () Real)
(declare-fun _a_5_ () Real)
(declare-fun l_0_0_9 () Real)
(declare-fun l_0_0_3 () Real)
(declare-fun l_0_0_23 () Real)
(declare-fun l_0_0_21 () Real)
(declare-fun l_0_0_17 () Real)
(declare-fun l_0_0_15 () Real)
(declare-fun l_0_0_5 () Real)
(declare-fun l_0_0_24 () Real)
(declare-fun l_0_0_18 () Real)
(declare-fun l_0_0_11 () Real)
(declare-fun l_0_0_6 () Real)
(declare-fun l_0_0_12 () Real)
(declare-fun l_0_1_7 () Real)
(declare-fun l_0_1_25 () Real)
(declare-fun l_0_1_1 () Real)
(declare-fun l_0_1_30 () Real)
(declare-fun l_0_1_29 () Real)
(declare-fun l_0_1_28 () Real)
(declare-fun l_0_1_13 () Real)
(declare-fun l_0_1_16 () Real)
(declare-fun l_0_1_12 () Real)
(declare-fun l_0_1_11 () Real)
(declare-fun l_0_1_10 () Real)
(declare-fun l_0_1_4 () Real)
(declare-fun l_0_1_6 () Real)
(declare-fun l_0_1_5 () Real)
(declare-fun l_0_1_8 () Real)
(declare-fun l_0_1_26 () Real)
(declare-fun l_0_1_19 () Real)
(declare-fun l_0_1_2 () Real)
(declare-fun l_0_1_9 () Real)
(declare-fun l_0_1_27 () Real)
(declare-fun l_0_1_20 () Real)
(declare-fun l_0_1_3 () Real)
(declare-fun l_0_1_22 () Real)
(declare-fun l_0_1_14 () Real)
(declare-fun l_0_1_21 () Real)
(declare-fun l_0_1_23 () Real)
(declare-fun l_0_1_15 () Real)
(declare-fun l_0_1_24 () Real)
(declare-fun l_0_1_17 () Real)
(declare-fun l_0_1_18 () Real)
(declare-fun l_0_2_7 () Real)
(declare-fun l_0_2_31 () Real)
(declare-fun l_0_2_25 () Real)
(declare-fun l_0_2_1 () Real)
(declare-fun l_0_2_8 () Real)
(declare-fun l_0_2_32 () Real)
(declare-fun l_0_2_26 () Real)
(declare-fun l_0_2_19 () Real)
(declare-fun l_0_2_2 () Real)
(declare-fun l_0_2_36 () Real)
(declare-fun l_0_2_35 () Real)
(declare-fun l_0_2_34 () Real)
(declare-fun l_0_2_30 () Real)
(declare-fun l_0_2_29 () Real)
(declare-fun l_0_2_28 () Real)
(declare-fun l_0_2_13 () Real)
(declare-fun l_0_2_16 () Real)
(declare-fun l_0_2_12 () Real)
(declare-fun l_0_2_11 () Real)
(declare-fun l_0_2_10 () Real)
(declare-fun l_0_2_4 () Real)
(declare-fun l_0_2_6 () Real)
(declare-fun l_0_2_5 () Real)
(declare-fun l_0_2_9 () Real)
(declare-fun l_0_2_33 () Real)
(declare-fun l_0_2_27 () Real)
(declare-fun l_0_2_20 () Real)
(declare-fun l_0_2_3 () Real)
(declare-fun l_0_2_22 () Real)
(declare-fun l_0_2_14 () Real)
(declare-fun l_0_2_21 () Real)
(declare-fun l_0_2_23 () Real)
(declare-fun l_0_2_15 () Real)
(declare-fun l_0_2_24 () Real)
(declare-fun l_0_2_17 () Real)
(declare-fun l_0_2_18 () Real)
(declare-fun l_0_3_8 () Real)
(declare-fun l_0_3_7 () Real)
(declare-fun l_0_3_26 () Real)
(declare-fun l_0_3_25 () Real)
(declare-fun l_0_3_19 () Real)
(declare-fun l_0_3_2 () Real)
(declare-fun l_0_3_1 () Real)
(declare-fun l_0_3_28 () Real)
(declare-fun l_0_3_13 () Real)
(declare-fun l_0_3_10 () Real)
(declare-fun l_0_3_4 () Real)
(declare-fun l_0_3_29 () Real)
(declare-fun l_0_3_27 () Real)
(declare-fun l_0_3_22 () Real)
(declare-fun l_0_3_14 () Real)
(declare-fun l_0_3_9 () Real)
(declare-fun l_0_3_11 () Real)
(declare-fun l_0_3_5 () Real)
(declare-fun l_0_3_3 () Real)
(declare-fun l_0_3_30 () Real)
(declare-fun l_0_3_16 () Real)
(declare-fun l_0_3_12 () Real)
(declare-fun l_0_3_6 () Real)
(declare-fun l_0_3_20 () Real)
(declare-fun l_0_3_21 () Real)
(declare-fun l_0_3_23 () Real)
(declare-fun l_0_3_15 () Real)
(declare-fun l_0_3_24 () Real)
(declare-fun l_0_3_17 () Real)
(declare-fun l_0_3_18 () Real)
(assert
 (let ((?x144 (- (- (+ _a_0_ (* l_0_0_13 l_0_0_13)) (* l_0_0_19 l_0_0_19)) (* (* 2.0 l_0_0_25) l_0_0_26))))
 (= ?x144 0.0)))
(assert
 (= (- _a_1_ (* l_0_0_25 l_0_0_25)) 0.0))
(assert
 (let ((?x188 (+ (+ _a_2_ (* (* 2.0 l_0_0_1) l_0_0_2)) (* (* 2.0 l_0_0_13) l_0_0_16))))
 (let ((?x194 (- (- ?x188 (* (* 2.0 l_0_0_19) l_0_0_22)) (* (* 2.0 l_0_0_26) l_0_0_28))))
 (let ((?x200 (- (- ?x194 (* (* 2.0 l_0_0_27) l_0_0_29)) (* (* 2.0 l_0_0_7) l_0_0_8))))
 (= ?x200 0.0)))))
(assert
 (let ((?x236 (* l_0_0_7 l_0_0_7)))
 (let ((?x232 (* l_0_0_1 l_0_0_1)))
 (let ((?x233 (+ _a_3_ ?x232)))
 (= (- (- ?x233 (* (* 2.0 l_0_0_25) l_0_0_28)) ?x236) 0.0)))))
(assert
 (let ((?x255 (* l_0_0_27 l_0_0_27)))
 (let ((?x253 (* l_0_0_26 l_0_0_26)))
 (let ((?x252 (- (+ _a_4_ (* (* 2.0 l_0_0_13) l_0_0_14)) (* (* 2.0 l_0_0_19) l_0_0_20))))
 (= (- (- ?x252 ?x253) ?x255) 0.0)))))
(assert
 (let ((?x283 (* l_0_0_30 l_0_0_30)))
 (let ((?x281 (* l_0_0_29 l_0_0_29)))
 (let ((?x279 (* l_0_0_28 l_0_0_28)))
 (let ((?x278 (- (+ _a_5_ (* (* 2.0 l_0_0_1) l_0_0_4)) (* (* 2.0 l_0_0_10) l_0_0_7))))
 (= (- (- (- ?x278 ?x279) ?x281) ?x283) 0.0))))))
(assert
 (let ((?x322 (* l_0_0_9 l_0_0_9)))
 (let ((?x320 (* l_0_0_8 l_0_0_8)))
 (let ((?x318 (* l_0_0_3 l_0_0_3)))
 (let ((?x310 (* l_0_0_2 l_0_0_2)))
 (let ((?x309 (+ (* (* 2.0 l_0_0_14) l_0_0_16) (* (* 2.0 l_0_0_15) l_0_0_17))))
 (let ((?x317 (- (- (+ ?x309 ?x310) (* (* 2.0 l_0_0_20) l_0_0_22)) (* (* 2.0 l_0_0_21) l_0_0_23))))
 (= (- (- (+ ?x317 ?x318) ?x320) ?x322) 0.0))))))))
(assert
 (let ((?x368 (* l_0_0_24 l_0_0_24)))
 (let ((?x366 (* l_0_0_23 l_0_0_23)))
 (let ((?x364 (* l_0_0_22 l_0_0_22)))
 (let ((?x359 (* l_0_0_18 l_0_0_18)))
 (let ((?x357 (* l_0_0_17 l_0_0_17)))
 (let ((?x355 (* l_0_0_16 l_0_0_16)))
 (let ((?x354 (- (* (* (- 2.0) l_0_0_10) l_0_0_8) (* (* 2.0 l_0_0_11) l_0_0_9))))
 (let ((?x363 (+ (+ (+ (+ ?x354 ?x355) ?x357) ?x359) (* (* 2.0 l_0_0_2) l_0_0_4))))
 (let ((?x372 (+ (- (- (- ?x363 ?x364) ?x366) ?x368) (* (* 2.0 l_0_0_3) l_0_0_5))))
 (= ?x372 0.0)))))))))))
(assert
 (let ((?x408 (* l_0_0_6 l_0_0_6)))
 (let ((?x406 (* l_0_0_5 l_0_0_5)))
 (let ((?x404 (* l_0_0_4 l_0_0_4)))
 (let ((?x402 (* l_0_0_12 l_0_0_12)))
 (let ((?x405 (+ (- (- (* (- l_0_0_10) l_0_0_10) (* l_0_0_11 l_0_0_11)) ?x402) ?x404)))
 (= (+ (+ ?x405 ?x406) ?x408) 0.0)))))))
(assert
 (let ((?x430 (* l_0_0_21 l_0_0_21)))
 (let ((?x428 (* l_0_0_20 l_0_0_20)))
 (let ((?x426 (* l_0_0_15 l_0_0_15)))
 (let ((?x420 (* l_0_0_14 l_0_0_14)))
 (let ((?x427 (+ ?x420 ?x426)))
 (= (- (- ?x427 ?x428) ?x430) 0.0)))))))
(assert
 (>= l_0_0_1 0.0))
(assert
 (>= l_0_0_3 0.0))
(assert
 (>= l_0_0_6 0.0))
(assert
 (>= l_0_0_7 0.0))
(assert
 (>= l_0_0_9 0.0))
(assert
 (>= l_0_0_12 0.0))
(assert
 (>= l_0_0_13 0.0))
(assert
 (>= l_0_0_15 0.0))
(assert
 (>= l_0_0_18 0.0))
(assert
 (>= l_0_0_19 0.0))
(assert
 (>= l_0_0_21 0.0))
(assert
 (>= l_0_0_24 0.0))
(assert
 (>= l_0_0_25 0.0))
(assert
 (>= l_0_0_27 0.0))
(assert
 (>= l_0_0_30 0.0))
(assert
 (let ((?x463 (+ (- (* (* (- _a_1_) l_0_1_1) l_0_1_1) (* l_0_1_25 l_0_1_25)) (* 5.0 (* l_0_1_7 l_0_1_7)))))
 (= ?x463 0.0)))
(assert
 (let ((?x510 (* l_0_1_30 l_0_1_30)))
 (let ((?x508 (* l_0_1_29 l_0_1_29)))
 (let ((?x506 (* l_0_1_28 l_0_1_28)))
 (let ((?x504 (* l_0_1_13 l_0_1_13)))
 (let ((?x497 (* l_0_1_12 l_0_1_12)))
 (let ((?x498 (* 5.0 ?x497)))
 (let ((?x494 (* l_0_1_11 l_0_1_11)))
 (let ((?x495 (* 5.0 ?x494)))
 (let ((?x491 (* l_0_1_10 l_0_1_10)))
 (let ((?x492 (* 5.0 ?x491)))
 (let ((?x478 (* l_0_1_6 l_0_1_6)))
 (let ((?x479 (+ (+ (* l_0_1_4 l_0_1_4) (* l_0_1_5 l_0_1_5)) ?x478)))
 (let ((?x455 (- _a_1_)))
 (let ((?x487 (- (- (* ?x455 ?x479) (* (* (* 2.0 _a_3_) l_0_1_1) l_0_1_4)) (* (* _a_5_ l_0_1_1) l_0_1_1))))
 (let ((?x499 (+ (+ (+ (- ?x487 (* (* 2.0 l_0_1_10) l_0_1_7)) ?x492) ?x495) ?x498)))
 (let ((?x509 (- (- (- (+ ?x499 (* (* 20.0 l_0_1_13) l_0_1_16)) ?x504) ?x506) ?x508)))
 (= (- (- ?x509 ?x510) (/ 5.0 2.0)) 0.0))))))))))))))))))
(assert
 (let ((?x460 (* l_0_1_7 l_0_1_7)))
 (let ((?x504 (* l_0_1_13 l_0_1_13)))
 (let ((?x568 (* 10.0 ?x504)))
 (let ((?x563 (- (* (* (* (- 2.0) _a_1_) l_0_1_1) l_0_1_4) (* (* _a_3_ l_0_1_1) l_0_1_1))))
 (let ((?x572 (- (+ (+ ?x563 (* (* 10.0 l_0_1_10) l_0_1_7)) ?x568) (* (* 2.0 l_0_1_25) l_0_1_28))))
 (= (- (- ?x572 ?x460) 4.0) 0.0)))))))
(assert
 (let ((?x611 (* l_0_1_19 l_0_1_19)))
 (let ((?x612 (* 10.0 ?x611)))
 (let ((?x610 (- (* (* (- _a_0_) l_0_1_1) l_0_1_1) (* (* (* 2.0 _a_1_) l_0_1_1) l_0_1_2))))
 (let ((?x618 (+ (- (+ ?x610 ?x612) (* (* 2.0 l_0_1_25) l_0_1_26)) (* (* 10.0 l_0_1_7) l_0_1_8))))
 (= (+ ?x618 1.0) 0.0))))))
(assert
 (let ((?x659 (* l_0_1_27 l_0_1_27)))
 (let ((?x657 (* l_0_1_26 l_0_1_26)))
 (let ((?x611 (* l_0_1_19 l_0_1_19)))
 (let ((?x649 (- (* (* (* (- 2.0) _a_0_) l_0_1_1) l_0_1_2) (* _a_1_ (+ (* l_0_1_2 l_0_1_2) (* l_0_1_3 l_0_1_3))))))
 (let ((?x655 (+ (- ?x649 (* (* _a_4_ l_0_1_1) l_0_1_1)) (* (* 20.0 l_0_1_19) l_0_1_20))))
 (let ((?x663 (+ (- (- (- ?x655 ?x611) ?x657) ?x659) (* 5.0 (* l_0_1_8 l_0_1_8)))))
 (= (+ ?x663 (* 5.0 (* l_0_1_9 l_0_1_9))) 0.0))))))))
(assert
 (let ((?x710 (+ (* (* 2.0 l_0_1_2) l_0_1_4) (* (* 2.0 l_0_1_3) l_0_1_5))))
 (let ((?x715 (- (- (* (* (* (- 2.0) _a_0_) l_0_1_1) l_0_1_4) (* _a_1_ ?x710)) (* (* _a_2_ l_0_1_1) l_0_1_1))))
 (let ((?x719 (+ (- ?x715 (* (* (* 2.0 _a_3_) l_0_1_1) l_0_1_2)) (* (* 10.0 l_0_1_10) l_0_1_8))))
 (let ((?x724 (+ (+ ?x719 (* (* 10.0 l_0_1_11) l_0_1_9)) (* (* 20.0 l_0_1_13) l_0_1_14))))
 (let ((?x729 (- (+ ?x724 (* (* 20.0 l_0_1_19) l_0_1_22)) (* (* 2.0 l_0_1_26) l_0_1_28))))
 (let ((?x735 (- (- ?x729 (* (* 2.0 l_0_1_27) l_0_1_29)) (* (* 2.0 l_0_1_7) l_0_1_8))))
 (= ?x735 0.0))))))))
(assert
 (let ((?x810 (- (* (- _a_0_) (+ (* l_0_1_2 l_0_1_2) (* l_0_1_3 l_0_1_3))) (* (* (* 2.0 _a_4_) l_0_1_1) l_0_1_2))))
 (let ((?x816 (+ (- ?x810 (* (* 2.0 l_0_1_19) l_0_1_20)) (* 10.0 (* l_0_1_20 l_0_1_20)))))
 (= (+ ?x816 (* 10.0 (* l_0_1_21 l_0_1_21))) 0.0))))
(assert
 (let ((?x664 (* l_0_1_9 l_0_1_9)))
 (let ((?x661 (* l_0_1_8 l_0_1_8)))
 (let ((?x853 (* l_0_1_15 l_0_1_15)))
 (let ((?x854 (* 10.0 ?x853)))
 (let ((?x850 (* l_0_1_14 l_0_1_14)))
 (let ((?x851 (* 10.0 ?x850)))
 (let ((?x710 (+ (* (* 2.0 l_0_1_2) l_0_1_4) (* (* 2.0 l_0_1_3) l_0_1_5))))
 (let ((?x604 (- _a_0_)))
 (let ((?x847 (- (- (* ?x604 ?x710) (* (* (* 2.0 _a_2_) l_0_1_1) l_0_1_2)) (* _a_3_ (+ (* l_0_1_2 l_0_1_2) (* l_0_1_3 l_0_1_3))))))
 (let ((?x855 (+ (+ (- ?x847 (* (* (* 2.0 _a_4_) l_0_1_1) l_0_1_4)) ?x851) ?x854)))
 (let ((?x860 (+ (- ?x855 (* (* 2.0 l_0_1_19) l_0_1_22)) (* (* 20.0 l_0_1_20) l_0_1_22))))
 (= (- (- (+ ?x860 (* (* 20.0 l_0_1_21) l_0_1_23)) ?x661) ?x664) 0.0)))))))))))))
(assert
 (let ((?x710 (+ (* (* 2.0 l_0_1_2) l_0_1_4) (* (* 2.0 l_0_1_3) l_0_1_5))))
 (let ((?x478 (* l_0_1_6 l_0_1_6)))
 (let ((?x479 (+ (+ (* l_0_1_4 l_0_1_4) (* l_0_1_5 l_0_1_5)) ?x478)))
 (let ((?x604 (- _a_0_)))
 (let ((?x925 (- (- (* ?x604 ?x479) (* (* (* 2.0 _a_2_) l_0_1_1) l_0_1_4)) (* _a_3_ ?x710))))
 (let ((?x931 (- (- ?x925 (* (* (* 2.0 _a_5_) l_0_1_1) l_0_1_2)) (* (* 2.0 l_0_1_10) l_0_1_8))))
 (let ((?x937 (- (- ?x931 (* (* 2.0 l_0_1_11) l_0_1_9)) (* (* 2.0 l_0_1_13) l_0_1_14))))
 (let ((?x943 (+ (+ ?x937 (* (* 20.0 l_0_1_14) l_0_1_16)) (* (* 20.0 l_0_1_15) l_0_1_17))))
 (let ((?x949 (+ (+ ?x943 (* 10.0 (* l_0_1_22 l_0_1_22))) (* 10.0 (* l_0_1_23 l_0_1_23)))))
 (= (+ ?x949 (* 10.0 (* l_0_1_24 l_0_1_24))) 0.0)))))))))))
(assert
 (let ((?x710 (+ (* (* 2.0 l_0_1_2) l_0_1_4) (* (* 2.0 l_0_1_3) l_0_1_5))))
 (let ((?x1019 (- (* (- _a_2_) (+ (* l_0_1_2 l_0_1_2) (* l_0_1_3 l_0_1_3))) (* _a_4_ ?x710))))
 (let ((?x1025 (- (- ?x1019 (* (* 2.0 l_0_1_20) l_0_1_22)) (* (* 2.0 l_0_1_21) l_0_1_23))))
 (= ?x1025 0.0)))))
(assert
 (let ((?x950 (* l_0_1_24 l_0_1_24)))
 (let ((?x947 (* l_0_1_23 l_0_1_23)))
 (let ((?x944 (* l_0_1_22 l_0_1_22)))
 (let ((?x853 (* l_0_1_15 l_0_1_15)))
 (let ((?x850 (* l_0_1_14 l_0_1_14)))
 (let ((?x478 (* l_0_1_6 l_0_1_6)))
 (let ((?x479 (+ (+ (* l_0_1_4 l_0_1_4) (* l_0_1_5 l_0_1_5)) ?x478)))
 (let ((?x710 (+ (* (* 2.0 l_0_1_2) l_0_1_4) (* (* 2.0 l_0_1_3) l_0_1_5))))
 (let ((?x1008 (- _a_2_)))
 (let ((?x1066 (- (- (* ?x1008 ?x710) (* _a_4_ ?x479)) (* _a_5_ (+ (* l_0_1_2 l_0_1_2) (* l_0_1_3 l_0_1_3))))))
 (= (- (- (- (- (- ?x1066 ?x850) ?x853) ?x944) ?x947) ?x950) 0.0))))))))))))
(assert
 (let ((?x710 (+ (* (* 2.0 l_0_1_2) l_0_1_4) (* (* 2.0 l_0_1_3) l_0_1_5))))
 (let ((?x478 (* l_0_1_6 l_0_1_6)))
 (let ((?x479 (+ (+ (* l_0_1_4 l_0_1_4) (* l_0_1_5 l_0_1_5)) ?x478)))
 (let ((?x1008 (- _a_2_)))
 (let ((?x1127 (- (- (* ?x1008 ?x479) (* _a_5_ ?x710)) (* (* 2.0 l_0_1_14) l_0_1_16))))
 (= (- ?x1127 (* (* 2.0 l_0_1_15) l_0_1_17)) 0.0)))))))
(assert
 (let ((?x497 (* l_0_1_12 l_0_1_12)))
 (let ((?x494 (* l_0_1_11 l_0_1_11)))
 (let ((?x491 (* l_0_1_10 l_0_1_10)))
 (let ((?x478 (* l_0_1_6 l_0_1_6)))
 (let ((?x479 (+ (+ (* l_0_1_4 l_0_1_4) (* l_0_1_5 l_0_1_5)) ?x478)))
 (let ((?x1168 (- _a_3_)))
 (let ((?x1172 (- (- (* ?x1168 ?x479) (* (* (* 2.0 _a_5_) l_0_1_1) l_0_1_4)) ?x491)))
 (let ((?x1179 (+ (- (- (- ?x1172 ?x494) ?x497) (* (* 2.0 l_0_1_13) l_0_1_16)) (* 10.0 (* l_0_1_16 l_0_1_16)))))
 (let ((?x1185 (+ (+ ?x1179 (* 10.0 (* l_0_1_17 l_0_1_17))) (* 10.0 (* l_0_1_18 l_0_1_18)))))
 (= ?x1185 0.0)))))))))))
(assert
 (let ((?x817 (* l_0_1_21 l_0_1_21)))
 (let ((?x814 (* l_0_1_20 l_0_1_20)))
 (let ((?x1223 (- (* (- _a_4_) (+ (* l_0_1_2 l_0_1_2) (* l_0_1_3 l_0_1_3))) ?x814)))
 (= (- ?x1223 ?x817) 0.0)))))
(assert
 (let ((?x1183 (* l_0_1_18 l_0_1_18)))
 (let ((?x1180 (* l_0_1_17 l_0_1_17)))
 (let ((?x1177 (* l_0_1_16 l_0_1_16)))
 (let ((?x478 (* l_0_1_6 l_0_1_6)))
 (let ((?x479 (+ (+ (* l_0_1_4 l_0_1_4) (* l_0_1_5 l_0_1_5)) ?x478)))
 (let ((?x1240 (- _a_5_)))
 (= (- (- (- (* ?x1240 ?x479) ?x1177) ?x1180) ?x1183) 0.0))))))))
(assert
 (>= l_0_1_1 0.0))
(assert
 (>= l_0_1_3 0.0))
(assert
 (>= l_0_1_6 0.0))
(assert
 (>= l_0_1_7 0.0))
(assert
 (>= l_0_1_9 0.0))
(assert
 (>= l_0_1_12 0.0))
(assert
 (>= l_0_1_13 0.0))
(assert
 (>= l_0_1_15 0.0))
(assert
 (>= l_0_1_18 0.0))
(assert
 (>= l_0_1_19 0.0))
(assert
 (>= l_0_1_21 0.0))
(assert
 (>= l_0_1_24 0.0))
(assert
 (>= l_0_1_25 0.0))
(assert
 (>= l_0_1_27 0.0))
(assert
 (>= l_0_1_30 0.0))
(assert
 (let ((?x1284 (* l_0_2_31 l_0_2_31)))
 (let ((?x1285 (- (- (* (* (- _a_1_) l_0_2_1) l_0_2_1) (* l_0_2_25 l_0_2_25)) ?x1284)))
 (= (+ ?x1285 (* 5.0 (* l_0_2_7 l_0_2_7))) 0.0))))
(assert
 (let ((?x1306 (* l_0_2_19 l_0_2_19)))
 (let ((?x1307 (* 10.0 ?x1306)))
 (let ((?x1305 (- (* (* (- _a_0_) l_0_2_1) l_0_2_1) (* (* (* 2.0 _a_1_) l_0_2_1) l_0_2_2))))
 (let ((?x1314 (- (- (+ ?x1305 ?x1307) (* (* 2.0 l_0_2_25) l_0_2_26)) (* (* 2.0 l_0_2_31) l_0_2_32))))
 (= (- (+ ?x1314 (* (* 10.0 l_0_2_7) l_0_2_8)) 1.0) 0.0))))))
(assert
 (let ((?x1387 (* l_0_2_36 l_0_2_36)))
 (let ((?x1385 (* l_0_2_35 l_0_2_35)))
 (let ((?x1383 (* l_0_2_34 l_0_2_34)))
 (let ((?x1381 (* l_0_2_30 l_0_2_30)))
 (let ((?x1379 (* l_0_2_29 l_0_2_29)))
 (let ((?x1377 (* l_0_2_28 l_0_2_28)))
 (let ((?x1375 (* l_0_2_13 l_0_2_13)))
 (let ((?x1369 (* l_0_2_12 l_0_2_12)))
 (let ((?x1370 (* 5.0 ?x1369)))
 (let ((?x1366 (* l_0_2_11 l_0_2_11)))
 (let ((?x1367 (* 5.0 ?x1366)))
 (let ((?x1363 (* l_0_2_10 l_0_2_10)))
 (let ((?x1364 (* 5.0 ?x1363)))
 (let ((?x1351 (* l_0_2_6 l_0_2_6)))
 (let ((?x1352 (+ (+ (* l_0_2_4 l_0_2_4) (* l_0_2_5 l_0_2_5)) ?x1351)))
 (let ((?x455 (- _a_1_)))
 (let ((?x1359 (- (- (* ?x455 ?x1352) (* (* (* 2.0 _a_3_) l_0_2_1) l_0_2_4)) (* (* _a_5_ l_0_2_1) l_0_2_1))))
 (let ((?x1371 (+ (+ (+ (- ?x1359 (* (* 2.0 l_0_2_10) l_0_2_7)) ?x1364) ?x1367) ?x1370)))
 (let ((?x1380 (- (- (- (+ ?x1371 (* (* 20.0 l_0_2_13) l_0_2_16)) ?x1375) ?x1377) ?x1379)))
 (= (+ (- (- (- (- ?x1380 ?x1381) ?x1383) ?x1385) ?x1387) (/ 7.0 2.0)) 0.0)))))))))))))))))))))
(assert
 (let ((?x1286 (* l_0_2_7 l_0_2_7)))
 (let ((?x1375 (* l_0_2_13 l_0_2_13)))
 (let ((?x1449 (* 10.0 ?x1375)))
 (let ((?x1445 (- (* (* (* (- 2.0) _a_1_) l_0_2_1) l_0_2_4) (* (* _a_3_ l_0_2_1) l_0_2_1))))
 (let ((?x1452 (- (+ (+ ?x1445 (* (* 10.0 l_0_2_10) l_0_2_7)) ?x1449) (* (* 2.0 l_0_2_25) l_0_2_28))))
 (= (+ (- (- ?x1452 (* (* 2.0 l_0_2_31) l_0_2_34)) ?x1286) 3.0) 0.0)))))))
(assert
 (let ((?x1507 (* l_0_2_33 l_0_2_33)))
 (let ((?x1505 (* l_0_2_32 l_0_2_32)))
 (let ((?x1503 (* l_0_2_27 l_0_2_27)))
 (let ((?x1501 (* l_0_2_26 l_0_2_26)))
 (let ((?x1306 (* l_0_2_19 l_0_2_19)))
 (let ((?x1493 (- (* (* (* (- 2.0) _a_0_) l_0_2_1) l_0_2_2) (* _a_1_ (+ (* l_0_2_2 l_0_2_2) (* l_0_2_3 l_0_2_3))))))
 (let ((?x1499 (+ (- ?x1493 (* (* _a_4_ l_0_2_1) l_0_2_1)) (* (* 20.0 l_0_2_19) l_0_2_20))))
 (let ((?x1511 (+ (- (- (- (- (- ?x1499 ?x1306) ?x1501) ?x1503) ?x1505) ?x1507) (* 5.0 (* l_0_2_8 l_0_2_8)))))
 (= (+ ?x1511 (* 5.0 (* l_0_2_9 l_0_2_9))) 0.0))))))))))
(assert
 (let ((?x1563 (+ (* (* 2.0 l_0_2_2) l_0_2_4) (* (* 2.0 l_0_2_3) l_0_2_5))))
 (let ((?x1568 (- (- (* (* (* (- 2.0) _a_0_) l_0_2_1) l_0_2_4) (* _a_1_ ?x1563)) (* (* _a_2_ l_0_2_1) l_0_2_1))))
 (let ((?x1572 (+ (- ?x1568 (* (* (* 2.0 _a_3_) l_0_2_1) l_0_2_2)) (* (* 10.0 l_0_2_10) l_0_2_8))))
 (let ((?x1577 (+ (+ ?x1572 (* (* 10.0 l_0_2_11) l_0_2_9)) (* (* 20.0 l_0_2_13) l_0_2_14))))
 (let ((?x1582 (- (+ ?x1577 (* (* 20.0 l_0_2_19) l_0_2_22)) (* (* 2.0 l_0_2_26) l_0_2_28))))
 (let ((?x1588 (- (- ?x1582 (* (* 2.0 l_0_2_27) l_0_2_29)) (* (* 2.0 l_0_2_32) l_0_2_34))))
 (let ((?x1594 (- (- ?x1588 (* (* 2.0 l_0_2_33) l_0_2_35)) (* (* 2.0 l_0_2_7) l_0_2_8))))
 (= ?x1594 0.0)))))))))
(assert
 (let ((?x1680 (- (* (- _a_0_) (+ (* l_0_2_2 l_0_2_2) (* l_0_2_3 l_0_2_3))) (* (* (* 2.0 _a_4_) l_0_2_1) l_0_2_2))))
 (let ((?x1686 (+ (- ?x1680 (* (* 2.0 l_0_2_19) l_0_2_20)) (* 10.0 (* l_0_2_20 l_0_2_20)))))
 (= (+ ?x1686 (* 10.0 (* l_0_2_21 l_0_2_21))) 0.0))))
(assert
 (let ((?x1512 (* l_0_2_9 l_0_2_9)))
 (let ((?x1509 (* l_0_2_8 l_0_2_8)))
 (let ((?x1722 (* l_0_2_15 l_0_2_15)))
 (let ((?x1723 (* 10.0 ?x1722)))
 (let ((?x1719 (* l_0_2_14 l_0_2_14)))
 (let ((?x1720 (* 10.0 ?x1719)))
 (let ((?x1563 (+ (* (* 2.0 l_0_2_2) l_0_2_4) (* (* 2.0 l_0_2_3) l_0_2_5))))
 (let ((?x604 (- _a_0_)))
 (let ((?x1716 (- (- (* ?x604 ?x1563) (* (* (* 2.0 _a_2_) l_0_2_1) l_0_2_2)) (* _a_3_ (+ (* l_0_2_2 l_0_2_2) (* l_0_2_3 l_0_2_3))))))
 (let ((?x1724 (+ (+ (- ?x1716 (* (* (* 2.0 _a_4_) l_0_2_1) l_0_2_4)) ?x1720) ?x1723)))
 (let ((?x1729 (+ (- ?x1724 (* (* 2.0 l_0_2_19) l_0_2_22)) (* (* 20.0 l_0_2_20) l_0_2_22))))
 (= (- (- (+ ?x1729 (* (* 20.0 l_0_2_21) l_0_2_23)) ?x1509) ?x1512) 0.0)))))))))))))
(assert
 (let ((?x1563 (+ (* (* 2.0 l_0_2_2) l_0_2_4) (* (* 2.0 l_0_2_3) l_0_2_5))))
 (let ((?x1351 (* l_0_2_6 l_0_2_6)))
 (let ((?x1352 (+ (+ (* l_0_2_4 l_0_2_4) (* l_0_2_5 l_0_2_5)) ?x1351)))
 (let ((?x604 (- _a_0_)))
 (let ((?x1794 (- (- (* ?x604 ?x1352) (* (* (* 2.0 _a_2_) l_0_2_1) l_0_2_4)) (* _a_3_ ?x1563))))
 (let ((?x1799 (- (- ?x1794 (* (* (* 2.0 _a_5_) l_0_2_1) l_0_2_2)) (* (* 2.0 l_0_2_10) l_0_2_8))))
 (let ((?x1805 (- (- ?x1799 (* (* 2.0 l_0_2_11) l_0_2_9)) (* (* 2.0 l_0_2_13) l_0_2_14))))
 (let ((?x1811 (+ (+ ?x1805 (* (* 20.0 l_0_2_14) l_0_2_16)) (* (* 20.0 l_0_2_15) l_0_2_17))))
 (let ((?x1817 (+ (+ ?x1811 (* 10.0 (* l_0_2_22 l_0_2_22))) (* 10.0 (* l_0_2_23 l_0_2_23)))))
 (= (+ ?x1817 (* 10.0 (* l_0_2_24 l_0_2_24))) 0.0)))))))))))
(assert
 (let ((?x1563 (+ (* (* 2.0 l_0_2_2) l_0_2_4) (* (* 2.0 l_0_2_3) l_0_2_5))))
 (let ((?x1879 (- (* (- _a_2_) (+ (* l_0_2_2 l_0_2_2) (* l_0_2_3 l_0_2_3))) (* _a_4_ ?x1563))))
 (let ((?x1892 (- (- ?x1879 (* (* 2.0 l_0_2_20) l_0_2_22)) (* (* 2.0 l_0_2_21) l_0_2_23))))
 (= ?x1892 0.0)))))
(assert
 (let ((?x1818 (* l_0_2_24 l_0_2_24)))
 (let ((?x1815 (* l_0_2_23 l_0_2_23)))
 (let ((?x1812 (* l_0_2_22 l_0_2_22)))
 (let ((?x1722 (* l_0_2_15 l_0_2_15)))
 (let ((?x1719 (* l_0_2_14 l_0_2_14)))
 (let ((?x1351 (* l_0_2_6 l_0_2_6)))
 (let ((?x1352 (+ (+ (* l_0_2_4 l_0_2_4) (* l_0_2_5 l_0_2_5)) ?x1351)))
 (let ((?x1563 (+ (* (* 2.0 l_0_2_2) l_0_2_4) (* (* 2.0 l_0_2_3) l_0_2_5))))
 (let ((?x1008 (- _a_2_)))
 (let ((?x1932 (- (- (* ?x1008 ?x1563) (* _a_4_ ?x1352)) (* _a_5_ (+ (* l_0_2_2 l_0_2_2) (* l_0_2_3 l_0_2_3))))))
 (= (- (- (- (- (- ?x1932 ?x1719) ?x1722) ?x1812) ?x1815) ?x1818) 0.0))))))))))))
(assert
 (let ((?x1563 (+ (* (* 2.0 l_0_2_2) l_0_2_4) (* (* 2.0 l_0_2_3) l_0_2_5))))
 (let ((?x1351 (* l_0_2_6 l_0_2_6)))
 (let ((?x1352 (+ (+ (* l_0_2_4 l_0_2_4) (* l_0_2_5 l_0_2_5)) ?x1351)))
 (let ((?x1008 (- _a_2_)))
 (let ((?x1993 (- (- (* ?x1008 ?x1352) (* _a_5_ ?x1563)) (* (* 2.0 l_0_2_14) l_0_2_16))))
 (= (- ?x1993 (* (* 2.0 l_0_2_15) l_0_2_17)) 0.0)))))))
(assert
 (let ((?x1369 (* l_0_2_12 l_0_2_12)))
 (let ((?x1366 (* l_0_2_11 l_0_2_11)))
 (let ((?x1363 (* l_0_2_10 l_0_2_10)))
 (let ((?x1351 (* l_0_2_6 l_0_2_6)))
 (let ((?x1352 (+ (+ (* l_0_2_4 l_0_2_4) (* l_0_2_5 l_0_2_5)) ?x1351)))
 (let ((?x1168 (- _a_3_)))
 (let ((?x2037 (- (- (* ?x1168 ?x1352) (* (* (* 2.0 _a_5_) l_0_2_1) l_0_2_4)) ?x1363)))
 (let ((?x2044 (+ (- (- (- ?x2037 ?x1366) ?x1369) (* (* 2.0 l_0_2_13) l_0_2_16)) (* 10.0 (* l_0_2_16 l_0_2_16)))))
 (let ((?x2050 (+ (+ ?x2044 (* 10.0 (* l_0_2_17 l_0_2_17))) (* 10.0 (* l_0_2_18 l_0_2_18)))))
 (= ?x2050 0.0)))))))))))
(assert
 (let ((?x1687 (* l_0_2_21 l_0_2_21)))
 (let ((?x1684 (* l_0_2_20 l_0_2_20)))
 (let ((?x2086 (- (* (- _a_4_) (+ (* l_0_2_2 l_0_2_2) (* l_0_2_3 l_0_2_3))) ?x1684)))
 (= (- ?x2086 ?x1687) 0.0)))))
(assert
 (let ((?x2048 (* l_0_2_18 l_0_2_18)))
 (let ((?x2045 (* l_0_2_17 l_0_2_17)))
 (let ((?x2042 (* l_0_2_16 l_0_2_16)))
 (let ((?x1351 (* l_0_2_6 l_0_2_6)))
 (let ((?x1352 (+ (+ (* l_0_2_4 l_0_2_4) (* l_0_2_5 l_0_2_5)) ?x1351)))
 (let ((?x1240 (- _a_5_)))
 (= (- (- (- (* ?x1240 ?x1352) ?x2042) ?x2045) ?x2048) 0.0))))))))
(assert
 (>= l_0_2_1 0.0))
(assert
 (>= l_0_2_3 0.0))
(assert
 (>= l_0_2_6 0.0))
(assert
 (>= l_0_2_7 0.0))
(assert
 (>= l_0_2_9 0.0))
(assert
 (>= l_0_2_12 0.0))
(assert
 (>= l_0_2_13 0.0))
(assert
 (>= l_0_2_15 0.0))
(assert
 (>= l_0_2_18 0.0))
(assert
 (>= l_0_2_19 0.0))
(assert
 (>= l_0_2_21 0.0))
(assert
 (>= l_0_2_24 0.0))
(assert
 (>= l_0_2_25 0.0))
(assert
 (>= l_0_2_27 0.0))
(assert
 (>= l_0_2_30 0.0))
(assert
 (>= l_0_2_31 0.0))
(assert
 (>= l_0_2_33 0.0))
(assert
 (>= l_0_2_36 0.0))
(assert
 (let ((?x2152 (* 11.0 _a_4_)))
 (let ((?x2148 (- (+ (* (* (- _a_0_) l_0_3_1) l_0_3_1) _a_0_) (* (* (* 2.0 _a_1_) l_0_3_1) l_0_3_2))))
 (let ((?x2156 (- (+ (+ ?x2148 (* 1.0 _a_2_)) ?x2152) (* (* 10.0 l_0_3_19) l_0_3_19))))
 (let ((?x2162 (- (- ?x2156 (* (* 2.0 l_0_3_25) l_0_3_26)) (* (* 10.0 l_0_3_7) l_0_3_8))))
 (= ?x2162 0.0))))))
(assert
 (let ((?x2215 (* l_0_3_7 l_0_3_7)))
 (let ((?x926 (* 2.0 _a_5_)))
 (let ((?x2204 (* (/ 121.0 2.0) _a_4_)))
 (let ((?x2197 (* 11.0 _a_2_)))
 (let ((?x2198 (+ (- (* (/ 11.0 2.0) _a_0_) (* (* (* 2.0 _a_1_) l_0_3_1) l_0_3_4)) ?x2197)))
 (let ((?x2206 (+ (+ (+ (- ?x2198 (* (* _a_3_ l_0_3_1) l_0_3_1)) _a_3_) ?x2204) ?x926)))
 (let ((?x2212 (- (- ?x2206 (* (* 10.0 l_0_3_10) l_0_3_7)) (* (* 10.0 l_0_3_13) l_0_3_13))))
 (= (+ (- ?x2212 (* (* 2.0 l_0_3_25) l_0_3_28)) ?x2215) 0.0)))))))))
(assert
 (let ((?x2264 (* l_0_3_25 l_0_3_25)))
 (let ((?x2260 (* (/ 121.0 4.0) _a_4_)))
 (let ((?x2255 (* (/ 11.0 2.0) _a_2_)))
 (let ((?x2254 (+ (- (* (/ 11.0 2.0) _a_0_) (* (* _a_1_ l_0_3_1) l_0_3_1)) _a_1_)))
 (let ((?x2263 (+ (+ (+ (+ ?x2254 ?x2255) (* 1.0 _a_3_)) ?x2260) (* 1.0 _a_5_))))
 (= (- (- ?x2263 ?x2264) (* (* 5.0 l_0_3_7) l_0_3_7)) 0.0)))))))
(assert
 (let ((?x2152 (* 11.0 _a_4_)))
 (let ((?x2289 (+ (* (* 2.0 l_0_3_2) l_0_3_4) (* (* 2.0 l_0_3_3) l_0_3_5))))
 (let ((?x2294 (- (- (* (* (* (- 2.0) _a_0_) l_0_3_1) l_0_3_4) (* _a_1_ ?x2289)) (* (* _a_2_ l_0_3_1) l_0_3_1))))
 (let ((?x2299 (+ (- (+ ?x2294 _a_2_) (* (* (* 2.0 _a_3_) l_0_3_1) l_0_3_2)) ?x2152)))
 (let ((?x2304 (- (- ?x2299 (* (* 10.0 l_0_3_10) l_0_3_8)) (* (* 10.0 l_0_3_11) l_0_3_9))))
 (let ((?x2310 (- (- ?x2304 (* (* 20.0 l_0_3_13) l_0_3_14)) (* (* 20.0 l_0_3_19) l_0_3_22))))
 (let ((?x2316 (- (- ?x2310 (* (* 2.0 l_0_3_26) l_0_3_28)) (* (* 2.0 l_0_3_27) l_0_3_29))))
 (= (+ ?x2316 (* (* 2.0 l_0_3_7) l_0_3_8)) 0.0)))))))))
(assert
 (let ((?x2428 (* l_0_3_30 l_0_3_30)))
 (let ((?x2426 (* l_0_3_29 l_0_3_29)))
 (let ((?x2424 (* l_0_3_28 l_0_3_28)))
 (let ((?x2238 (* l_0_3_13 l_0_3_13)))
 (let ((?x2260 (* (/ 121.0 4.0) _a_4_)))
 (let ((?x2255 (* (/ 11.0 2.0) _a_2_)))
 (let ((?x2398 (* l_0_3_6 l_0_3_6)))
 (let ((?x2399 (+ (+ (* l_0_3_4 l_0_3_4) (* l_0_3_5 l_0_3_5)) ?x2398)))
 (let ((?x455 (- _a_1_)))
 (let ((?x2403 (- (+ (* ?x455 ?x2399) ?x2255) (* (* (* 2.0 _a_3_) l_0_3_1) l_0_3_4))))
 (let ((?x2411 (+ (+ (- (+ ?x2403 ?x2260) (* (* _a_5_ l_0_3_1) l_0_3_1)) _a_5_) (* (* 2.0 l_0_3_10) l_0_3_7))))
 (let ((?x2417 (- (- ?x2411 (* (* 5.0 l_0_3_10) l_0_3_10)) (* (* 5.0 l_0_3_11) l_0_3_11))))
 (let ((?x2422 (- (- ?x2417 (* (* 5.0 l_0_3_12) l_0_3_12)) (* (* 20.0 l_0_3_13) l_0_3_16))))
 (= (- (- (- (+ ?x2422 ?x2238) ?x2424) ?x2426) ?x2428) 0.0)))))))))))))))
(assert
 (let ((?x2503 (* l_0_3_27 l_0_3_27)))
 (let ((?x2501 (* l_0_3_26 l_0_3_26)))
 (let ((?x2174 (* l_0_3_19 l_0_3_19)))
 (let ((?x2493 (- (* (* (* (- 2.0) _a_0_) l_0_3_1) l_0_3_2) (* _a_1_ (+ (* l_0_3_2 l_0_3_2) (* l_0_3_3 l_0_3_3))))))
 (let ((?x2499 (- (+ (- ?x2493 (* (* _a_4_ l_0_3_1) l_0_3_1)) _a_4_) (* (* 20.0 l_0_3_19) l_0_3_20))))
 (let ((?x2507 (- (- (- (+ ?x2499 ?x2174) ?x2501) ?x2503) (* (* 5.0 l_0_3_8) l_0_3_8))))
 (= (- ?x2507 (* (* 5.0 l_0_3_9) l_0_3_9)) 0.0))))))))
(assert
 (let ((?x2562 (- (* (- _a_0_) (+ (* l_0_3_2 l_0_3_2) (* l_0_3_3 l_0_3_3))) (* (* (* 2.0 _a_4_) l_0_3_1) l_0_3_2))))
 (let ((?x2568 (- (+ ?x2562 (* (* 2.0 l_0_3_19) l_0_3_20)) (* (* 10.0 l_0_3_20) l_0_3_20))))
 (= (- ?x2568 (* (* 10.0 l_0_3_21) l_0_3_21)) 0.0))))
(assert
 (let ((?x2552 (* l_0_3_9 l_0_3_9)))
 (let ((?x2546 (* l_0_3_8 l_0_3_8)))
 (let ((?x2289 (+ (* (* 2.0 l_0_3_2) l_0_3_4) (* (* 2.0 l_0_3_3) l_0_3_5))))
 (let ((?x604 (- _a_0_)))
 (let ((?x2604 (- (- (* ?x604 ?x2289) (* (* (* 2.0 _a_2_) l_0_3_1) l_0_3_2)) (* _a_3_ (+ (* l_0_3_2 l_0_3_2) (* l_0_3_3 l_0_3_3))))))
 (let ((?x2609 (- (- ?x2604 (* (* (* 2.0 _a_4_) l_0_3_1) l_0_3_4)) (* (* 10.0 l_0_3_14) l_0_3_14))))
 (let ((?x2614 (+ (- ?x2609 (* (* 10.0 l_0_3_15) l_0_3_15)) (* (* 2.0 l_0_3_19) l_0_3_22))))
 (let ((?x2620 (- (- ?x2614 (* (* 20.0 l_0_3_20) l_0_3_22)) (* (* 20.0 l_0_3_21) l_0_3_23))))
 (= (+ (+ ?x2620 ?x2546) ?x2552) 0.0))))))))))
(assert
 (let ((?x2289 (+ (* (* 2.0 l_0_3_2) l_0_3_4) (* (* 2.0 l_0_3_3) l_0_3_5))))
 (let ((?x2398 (* l_0_3_6 l_0_3_6)))
 (let ((?x2399 (+ (+ (* l_0_3_4 l_0_3_4) (* l_0_3_5 l_0_3_5)) ?x2398)))
 (let ((?x604 (- _a_0_)))
 (let ((?x2687 (- (- (* ?x604 ?x2399) (* (* (* 2.0 _a_2_) l_0_3_1) l_0_3_4)) (* _a_3_ ?x2289))))
 (let ((?x2692 (+ (- ?x2687 (* (* (* 2.0 _a_5_) l_0_3_1) l_0_3_2)) (* (* 2.0 l_0_3_10) l_0_3_8))))
 (let ((?x2698 (+ (+ ?x2692 (* (* 2.0 l_0_3_11) l_0_3_9)) (* (* 2.0 l_0_3_13) l_0_3_14))))
 (let ((?x2704 (- (- ?x2698 (* (* 20.0 l_0_3_14) l_0_3_16)) (* (* 20.0 l_0_3_15) l_0_3_17))))
 (let ((?x2710 (- (- ?x2704 (* (* 10.0 l_0_3_22) l_0_3_22)) (* (* 10.0 l_0_3_23) l_0_3_23))))
 (= (- ?x2710 (* (* 10.0 l_0_3_24) l_0_3_24)) 0.0)))))))))))
(assert
 (let ((?x2289 (+ (* (* 2.0 l_0_3_2) l_0_3_4) (* (* 2.0 l_0_3_3) l_0_3_5))))
 (let ((?x2790 (- (* (- _a_2_) (+ (* l_0_3_2 l_0_3_2) (* l_0_3_3 l_0_3_3))) (* _a_4_ ?x2289))))
 (let ((?x2796 (+ (+ ?x2790 (* (* 2.0 l_0_3_20) l_0_3_22)) (* (* 2.0 l_0_3_21) l_0_3_23))))
 (= ?x2796 0.0)))))
(assert
 (let ((?x2781 (* l_0_3_24 l_0_3_24)))
 (let ((?x2775 (* l_0_3_23 l_0_3_23)))
 (let ((?x2769 (* l_0_3_22 l_0_3_22)))
 (let ((?x2661 (* l_0_3_15 l_0_3_15)))
 (let ((?x2655 (* l_0_3_14 l_0_3_14)))
 (let ((?x2398 (* l_0_3_6 l_0_3_6)))
 (let ((?x2399 (+ (+ (* l_0_3_4 l_0_3_4) (* l_0_3_5 l_0_3_5)) ?x2398)))
 (let ((?x2289 (+ (* (* 2.0 l_0_3_2) l_0_3_4) (* (* 2.0 l_0_3_3) l_0_3_5))))
 (let ((?x1008 (- _a_2_)))
 (let ((?x2828 (- (- (* ?x1008 ?x2289) (* _a_4_ ?x2399)) (* _a_5_ (+ (* l_0_3_2 l_0_3_2) (* l_0_3_3 l_0_3_3))))))
 (= (+ (+ (+ (+ (+ ?x2828 ?x2655) ?x2661) ?x2769) ?x2775) ?x2781) 0.0))))))))))))
(assert
 (let ((?x2289 (+ (* (* 2.0 l_0_3_2) l_0_3_4) (* (* 2.0 l_0_3_3) l_0_3_5))))
 (let ((?x2398 (* l_0_3_6 l_0_3_6)))
 (let ((?x2399 (+ (+ (* l_0_3_4 l_0_3_4) (* l_0_3_5 l_0_3_5)) ?x2398)))
 (let ((?x1008 (- _a_2_)))
 (let ((?x2874 (+ (- (* ?x1008 ?x2399) (* _a_5_ ?x2289)) (* (* 2.0 l_0_3_14) l_0_3_16))))
 (= (+ ?x2874 (* (* 2.0 l_0_3_15) l_0_3_17)) 0.0)))))))
(assert
 (let ((?x2465 (* l_0_3_12 l_0_3_12)))
 (let ((?x2459 (* l_0_3_11 l_0_3_11)))
 (let ((?x2453 (* l_0_3_10 l_0_3_10)))
 (let ((?x2398 (* l_0_3_6 l_0_3_6)))
 (let ((?x2399 (+ (+ (* l_0_3_4 l_0_3_4) (* l_0_3_5 l_0_3_5)) ?x2398)))
 (let ((?x1168 (- _a_3_)))
 (let ((?x2910 (+ (- (* ?x1168 ?x2399) (* (* (* 2.0 _a_5_) l_0_3_1) l_0_3_4)) ?x2453)))
 (let ((?x2917 (- (+ (+ (+ ?x2910 ?x2459) ?x2465) (* (* 2.0 l_0_3_13) l_0_3_16)) (* (* 10.0 l_0_3_16) l_0_3_16))))
 (let ((?x2923 (- (- ?x2917 (* (* 10.0 l_0_3_17) l_0_3_17)) (* (* 10.0 l_0_3_18) l_0_3_18))))
 (= ?x2923 0.0)))))))))))
(assert
 (let ((?x2592 (* l_0_3_21 l_0_3_21)))
 (let ((?x2586 (* l_0_3_20 l_0_3_20)))
 (let ((?x2961 (+ (* (- _a_4_) (+ (* l_0_3_2 l_0_3_2) (* l_0_3_3 l_0_3_3))) ?x2586)))
 (= (+ ?x2961 ?x2592) 0.0)))))
(assert
 (let ((?x2953 (* l_0_3_18 l_0_3_18)))
 (let ((?x2947 (* l_0_3_17 l_0_3_17)))
 (let ((?x2941 (* l_0_3_16 l_0_3_16)))
 (let ((?x2398 (* l_0_3_6 l_0_3_6)))
 (let ((?x2399 (+ (+ (* l_0_3_4 l_0_3_4) (* l_0_3_5 l_0_3_5)) ?x2398)))
 (let ((?x1240 (- _a_5_)))
 (= (+ (+ (+ (* ?x1240 ?x2399) ?x2941) ?x2947) ?x2953) 0.0))))))))
(assert
 (>= l_0_3_1 0.0))
(assert
 (>= l_0_3_3 0.0))
(assert
 (>= l_0_3_6 0.0))
(assert
 (>= l_0_3_7 0.0))
(assert
 (>= l_0_3_9 0.0))
(assert
 (>= l_0_3_12 0.0))
(assert
 (>= l_0_3_13 0.0))
(assert
 (>= l_0_3_15 0.0))
(assert
 (>= l_0_3_18 0.0))
(assert
 (>= l_0_3_19 0.0))
(assert
 (>= l_0_3_21 0.0))
(assert
 (>= l_0_3_24 0.0))
(assert
 (>= l_0_3_25 0.0))
(assert
 (>= l_0_3_27 0.0))
(assert
 (>= l_0_3_30 0.0))
(check-sat)
(get-model)